ZrNCl
1.0
       21.4079532623         0.0000000000         0.0000000000
      -10.7039766312        18.5398313682         0.0000000000
        0.0000000000         0.0000000000        27.4220161438
   Zr    N   Cl
  216  216  198
Direct
     0.000000000         0.000000000         0.000000000
     0.000000000         0.333333343         0.000000000
     0.000000000         0.666666627         0.000000000
     0.333333313         0.000000000         0.000000000
     0.333333343         0.333333343         0.000000000
     0.333333313         0.666666627         0.000000000
     0.666666687         0.000000000         0.000000000
     0.666666687         0.333333343         0.000000000
     0.666666627         0.666666627         0.000000000
     0.166666657         0.000000000         0.000000000
     0.166666672         0.333333343         0.000000000
     0.166666672         0.666666627         0.000000000
     0.500000000         0.000000000         0.000000000
     0.499999970         0.333333343         0.000000000
     0.499999970         0.666666627         0.000000000
     0.833333373         0.000000000         0.000000000
     0.833333313         0.333333343         0.000000000
     0.833333313         0.666666627         0.000000000
     0.000000000         0.166666672         0.000000000
     0.000000000         0.500000000         0.000000000
     0.000000000         0.833333313         0.000000000
     0.333333313         0.166666672         0.000000000
     0.333333313         0.500000000         0.000000000
     0.333333313         0.833333313         0.000000000
     0.666666627         0.166666672         0.000000000
     0.666666687         0.500000000         0.000000000
     0.666666627         0.833333313         0.000000000
     0.166666672         0.166666672         0.000000000
     0.166666672         0.500000000         0.000000000
     0.166666672         0.833333313         0.000000000
     0.500000000         0.166666672         0.000000000
     0.499999970         0.500000000         0.000000000
     0.499999970         0.833333313         0.000000000
     0.833333373         0.166666672         0.000000000
     0.833333313         0.500000000         0.000000000
     0.833333313         0.833333313         0.000000000
     0.055555552         0.111111104         0.666666687
     0.055555575         0.444444448         0.666666687
     0.055555567         0.777777731         0.666666687
     0.388888866         0.111111104         0.666666687
     0.388888896         0.444444448         0.666666687
     0.388888866         0.777777731         0.666666687
     0.722222209         0.111111104         0.666666687
     0.722222209         0.444444448         0.666666687
     0.722222209         0.777777731         0.666666687
     0.222222209         0.111111104         0.666666687
     0.222222224         0.444444448         0.666666687
     0.222222224         0.777777731         0.666666687
     0.555555522         0.111111104         0.666666687
     0.555555522         0.444444448         0.666666687
     0.555555522         0.777777731         0.666666687
     0.888888955         0.111111104         0.666666687
     0.888888896         0.444444448         0.666666687
     0.888888896         0.777777731         0.666666687
     0.055555552         0.277777761         0.666666687
     0.055555578         0.611111104         0.666666687
     0.055555560         0.944444418         0.666666687
     0.388888866         0.277777761         0.666666687
     0.388888896         0.611111104         0.666666687
     0.388888866         0.944444418         0.666666687
     0.722222209         0.277777761         0.666666687
     0.722222269         0.611111104         0.666666687
     0.722222209         0.944444418         0.666666687
     0.222222254         0.277777761         0.666666687
     0.222222224         0.611111104         0.666666687
     0.222222224         0.944444418         0.666666687
     0.555555582         0.277777761         0.666666687
     0.555555582         0.611111104         0.666666687
     0.555555582         0.944444418         0.666666687
     0.888888896         0.277777761         0.666666687
     0.888888896         0.611111104         0.666666687
     0.888888896         0.944444418         0.666666687
     0.111111119         0.055555578         0.333333343
     0.111111112         0.388888866         0.333333343
     0.111111112         0.722222149         0.333333343
     0.444444478         0.055555578         0.333333343
     0.444444448         0.388888866         0.333333343
     0.444444418         0.722222149         0.333333343
     0.777777791         0.055555578         0.333333343
     0.777777791         0.388888866         0.333333343
     0.777777791         0.722222149         0.333333343
     0.277777761         0.055555578         0.333333343
     0.277777761         0.388888866         0.333333343
     0.277777702         0.722222149         0.333333343
     0.611111104         0.055555578         0.333333343
     0.611111104         0.388888866         0.333333343
     0.611111045         0.722222149         0.333333343
     0.944444418         0.055555578         0.333333343
     0.944444478         0.388888866         0.333333343
     0.944444418         0.722222149         0.333333343
     0.111111127         0.222222254         0.333333343
     0.111111104         0.555555522         0.333333343
     0.111111149         0.888888896         0.333333343
     0.444444448         0.222222254         0.333333343
     0.444444418         0.555555522         0.333333343
     0.444444448         0.888888896         0.333333343
     0.777777791         0.222222254         0.333333343
     0.777777791         0.555555522         0.333333343
     0.777777791         0.888888896         0.333333343
     0.277777791         0.222222254         0.333333343
     0.277777761         0.555555522         0.333333343
     0.277777761         0.888888896         0.333333343
     0.611111104         0.222222254         0.333333343
     0.611111045         0.555555522         0.333333343
     0.611111104         0.888888896         0.333333343
     0.944444418         0.222222254         0.333333343
     0.944444418         0.555555522         0.333333343
     0.944444418         0.888888896         0.333333343
     0.000000000         0.000000000         0.569999993
     0.000000000         0.333333343         0.569999993
     0.000000000         0.666666627         0.569999993
     0.333333313         0.000000000         0.569999993
     0.333333343         0.333333343         0.569999993
     0.333333313         0.666666627         0.569999993
     0.666666687         0.000000000         0.569999993
     0.666666687         0.333333343         0.569999993
     0.666666627         0.666666627         0.569999993
     0.166666657         0.000000000         0.569999993
     0.166666672         0.333333343         0.569999993
     0.166666672         0.666666627         0.569999993
     0.500000000         0.000000000         0.569999993
     0.499999970         0.333333343         0.569999993
     0.499999970         0.666666627         0.569999993
     0.833333373         0.000000000         0.569999993
     0.833333313         0.333333343         0.569999993
     0.833333313         0.666666627         0.569999993
     0.000000000         0.166666672         0.569999993
     0.000000000         0.500000000         0.569999993
     0.000000000         0.833333313         0.569999993
     0.333333313         0.166666672         0.569999993
     0.333333313         0.500000000         0.569999993
     0.333333313         0.833333313         0.569999993
     0.666666627         0.166666672         0.569999993
     0.666666687         0.500000000         0.569999993
     0.666666627         0.833333313         0.569999993
     0.166666672         0.166666672         0.569999993
     0.166666672         0.500000000         0.569999993
     0.166666672         0.833333313         0.569999993
     0.500000000         0.166666672         0.569999993
     0.499999970         0.500000000         0.569999993
     0.499999970         0.833333313         0.569999993
     0.833333373         0.166666672         0.569999993
     0.833333313         0.500000000         0.569999993
     0.833333313         0.833333313         0.569999993
     0.055555552         0.111111104         0.236666664
     0.055555575         0.444444448         0.236666664
     0.055555567         0.777777731         0.236666664
     0.388888866         0.111111104         0.236666664
     0.388888896         0.444444448         0.236666664
     0.388888866         0.777777731         0.236666664
     0.722222209         0.111111104         0.236666664
     0.722222209         0.444444448         0.236666664
     0.722222209         0.777777731         0.236666664
     0.222222209         0.111111104         0.236666664
     0.222222224         0.444444448         0.236666664
     0.222222224         0.777777731         0.236666664
     0.555555522         0.111111104         0.236666664
     0.555555522         0.444444448         0.236666664
     0.555555522         0.777777731         0.236666664
     0.888888955         0.111111104         0.236666664
     0.888888896         0.444444448         0.236666664
     0.888888896         0.777777731         0.236666664
     0.055555552         0.277777761         0.236666664
     0.055555578         0.611111104         0.236666664
     0.055555560         0.944444418         0.236666664
     0.388888866         0.277777761         0.236666664
     0.388888896         0.611111104         0.236666664
     0.388888866         0.944444418         0.236666664
     0.722222209         0.277777761         0.236666664
     0.722222269         0.611111104         0.236666664
     0.722222209         0.944444418         0.236666664
     0.222222254         0.277777761         0.236666664
     0.222222224         0.611111104         0.236666664
     0.222222224         0.944444418         0.236666664
     0.555555582         0.277777761         0.236666664
     0.555555582         0.611111104         0.236666664
     0.555555582         0.944444418         0.236666664
     0.888888896         0.277777761         0.236666664
     0.888888896         0.611111104         0.236666664
     0.888888896         0.944444418         0.236666664
     0.111111119         0.055555578         0.903333306
     0.111111112         0.388888866         0.903333306
     0.111111112         0.722222149         0.903333306
     0.444444478         0.055555578         0.903333306
     0.444444448         0.388888866         0.903333306
     0.444444418         0.722222149         0.903333306
     0.777777791         0.055555578         0.903333306
     0.777777791         0.388888866         0.903333306
     0.777777791         0.722222149         0.903333306
     0.277777761         0.055555578         0.903333306
     0.277777761         0.388888866         0.903333306
     0.277777702         0.722222149         0.903333306
     0.611111104         0.055555578         0.903333306
     0.611111104         0.388888866         0.903333306
     0.611111045         0.722222149         0.903333306
     0.944444418         0.055555578         0.903333306
     0.944444478         0.388888866         0.903333306
     0.944444418         0.722222149         0.903333306
     0.111111127         0.222222254         0.903333306
     0.111111104         0.555555522         0.903333306
     0.111111149         0.888888896         0.903333306
     0.444444448         0.222222254         0.903333306
     0.444444418         0.555555522         0.903333306
     0.444444448         0.888888896         0.903333306
     0.777777791         0.222222254         0.903333306
     0.777777791         0.555555522         0.903333306
     0.777777791         0.888888896         0.903333306
     0.277777791         0.222222254         0.903333306
     0.277777761         0.555555522         0.903333306
     0.277777761         0.888888896         0.903333306
     0.611111104         0.222222254         0.903333306
     0.611111045         0.555555522         0.903333306
     0.611111104         0.888888896         0.903333306
     0.944444418         0.222222254         0.903333306
     0.944444418         0.555555522         0.903333306
     0.944444418         0.888888896         0.903333306
     0.000000000         0.000000000         0.921000004
     0.000000000         0.333333343         0.921000004
     0.000000000         0.666666627         0.921000004
     0.333333313         0.000000000         0.921000004
     0.333333343         0.333333343         0.921000004
     0.333333313         0.666666627         0.921000004
     0.666666687         0.000000000         0.921000004
     0.666666687         0.333333343         0.921000004
     0.666666627         0.666666627         0.921000004
     0.166666657         0.000000000         0.921000004
     0.166666672         0.333333343         0.921000004
     0.166666672         0.666666627         0.921000004
     0.500000000         0.000000000         0.921000004
     0.499999970         0.333333343         0.921000004
     0.499999970         0.666666627         0.921000004
     0.833333373         0.000000000         0.921000004
     0.833333313         0.333333343         0.921000004
     0.833333313         0.666666627         0.921000004
     0.000000000         0.166666672         0.921000004
     0.000000000         0.500000000         0.921000004
     0.000000000         0.833333313         0.921000004
     0.333333313         0.166666672         0.921000004
     0.333333313         0.500000000         0.921000004
     0.333333313         0.833333313         0.921000004
     0.666666627         0.166666672         0.921000004
     0.666666687         0.500000000         0.921000004
     0.666666627         0.833333313         0.921000004
     0.166666672         0.166666672         0.921000004
     0.166666672         0.500000000         0.921000004
     0.166666672         0.833333313         0.921000004
     0.500000000         0.166666672         0.921000004
     0.499999970         0.500000000         0.921000004
     0.499999970         0.833333313         0.921000004
     0.833333373         0.166666672         0.921000004
     0.833333313         0.500000000         0.921000004
     0.833333313         0.833333313         0.921000004
     0.055555552         0.111111104         0.587666690
     0.055555575         0.444444448         0.587666690
     0.055555567         0.777777731         0.587666690
     0.388888866         0.111111104         0.587666690
     0.388888896         0.444444448         0.587666690
     0.388888866         0.777777731         0.587666690
     0.722222209         0.111111104         0.587666690
     0.722222209         0.444444448         0.587666690
     0.722222209         0.777777731         0.587666690
     0.222222209         0.111111104         0.587666690
     0.222222224         0.444444448         0.587666690
     0.222222224         0.777777731         0.587666690
     0.555555522         0.111111104         0.587666690
     0.555555522         0.444444448         0.587666690
     0.555555522         0.777777731         0.587666690
     0.888888955         0.111111104         0.587666690
     0.888888896         0.444444448         0.587666690
     0.888888896         0.777777731         0.587666690
     0.055555552         0.277777761         0.587666690
     0.055555578         0.611111104         0.587666690
     0.055555560         0.944444418         0.587666690
     0.388888866         0.277777761         0.587666690
     0.388888896         0.611111104         0.587666690
     0.388888866         0.944444418         0.587666690
     0.722222209         0.277777761         0.587666690
     0.722222269         0.611111104         0.587666690
     0.722222209         0.944444418         0.587666690
     0.222222254         0.277777761         0.587666690
     0.222222224         0.611111104         0.587666690
     0.222222224         0.944444418         0.587666690
     0.555555582         0.277777761         0.587666690
     0.555555582         0.611111104         0.587666690
     0.555555582         0.944444418         0.587666690
     0.888888896         0.277777761         0.587666690
     0.888888896         0.611111104         0.587666690
     0.888888896         0.944444418         0.587666690
     0.111111119         0.055555578         0.254333287
     0.111111112         0.388888866         0.254333287
     0.111111112         0.722222149         0.254333287
     0.444444478         0.055555578         0.254333287
     0.444444448         0.388888866         0.254333287
     0.444444418         0.722222149         0.254333287
     0.777777791         0.055555578         0.254333287
     0.777777791         0.388888866         0.254333287
     0.777777791         0.722222149         0.254333287
     0.277777761         0.055555578         0.254333287
     0.277777761         0.388888866         0.254333287
     0.277777702         0.722222149         0.254333287
     0.611111104         0.055555578         0.254333287
     0.611111104         0.388888866         0.254333287
     0.611111045         0.722222149         0.254333287
     0.944444418         0.055555578         0.254333287
     0.944444478         0.388888866         0.254333287
     0.944444418         0.722222149         0.254333287
     0.111111127         0.222222254         0.254333287
     0.111111104         0.555555522         0.254333287
     0.111111149         0.888888896         0.254333287
     0.444444448         0.222222254         0.254333287
     0.444444418         0.555555522         0.254333287
     0.444444448         0.888888896         0.254333287
     0.777777791         0.222222254         0.254333287
     0.777777791         0.555555522         0.254333287
     0.777777791         0.888888896         0.254333287
     0.277777791         0.222222254         0.254333287
     0.277777761         0.555555522         0.254333287
     0.277777761         0.888888896         0.254333287
     0.611111104         0.222222254         0.254333287
     0.611111045         0.555555522         0.254333287
     0.611111104         0.888888896         0.254333287
     0.944444418         0.222222254         0.254333287
     0.944444418         0.555555522         0.254333287
     0.944444418         0.888888896         0.254333287
     0.000000000         0.000000000         0.648999989
     0.000000000         0.333333343         0.648999989
     0.000000000         0.666666627         0.648999989
     0.333333313         0.000000000         0.648999989
     0.333333343         0.333333343         0.648999989
     0.333333313         0.666666627         0.648999989
     0.666666687         0.000000000         0.648999989
     0.666666687         0.333333343         0.648999989
     0.666666627         0.666666627         0.648999989
     0.166666657         0.000000000         0.648999989
     0.166666672         0.333333343         0.648999989
     0.166666672         0.666666627         0.648999989
     0.500000000         0.000000000         0.648999989
     0.499999970         0.333333343         0.648999989
     0.499999970         0.666666627         0.648999989
     0.833333373         0.000000000         0.648999989
     0.833333313         0.333333343         0.648999989
     0.833333313         0.666666627         0.648999989
     0.000000000         0.166666672         0.648999989
     0.000000000         0.500000000         0.648999989
     0.000000000         0.833333313         0.648999989
     0.333333313         0.166666672         0.648999989
     0.333333313         0.500000000         0.648999989
     0.333333313         0.833333313         0.648999989
     0.666666627         0.166666672         0.648999989
     0.666666687         0.500000000         0.648999989
     0.666666627         0.833333313         0.648999989
     0.166666672         0.166666672         0.648999989
     0.166666672         0.500000000         0.648999989
     0.166666672         0.833333313         0.648999989
     0.500000000         0.166666672         0.648999989
     0.499999970         0.500000000         0.648999989
     0.499999970         0.833333313         0.648999989
     0.833333373         0.166666672         0.648999989
     0.833333313         0.500000000         0.648999989
     0.833333313         0.833333313         0.648999989
     0.055555552         0.111111104         0.315666676
     0.055555575         0.444444448         0.315666676
     0.055555567         0.777777731         0.315666676
     0.388888866         0.111111104         0.315666676
     0.388888896         0.444444448         0.315666676
     0.388888866         0.777777731         0.315666676
     0.722222209         0.111111104         0.315666676
     0.722222209         0.444444448         0.315666676
     0.722222209         0.777777731         0.315666676
     0.222222209         0.111111104         0.315666676
     0.222222224         0.444444448         0.315666676
     0.222222224         0.777777731         0.315666676
     0.555555522         0.111111104         0.315666676
     0.555555522         0.444444448         0.315666676
     0.555555522         0.777777731         0.315666676
     0.888888955         0.111111104         0.315666676
     0.888888896         0.444444448         0.315666676
     0.888888896         0.777777731         0.315666676
     0.055555552         0.277777761         0.315666676
     0.055555578         0.611111104         0.315666676
     0.055555560         0.944444418         0.315666676
     0.388888866         0.277777761         0.315666676
     0.388888896         0.611111104         0.315666676
     0.388888866         0.944444418         0.315666676
     0.722222209         0.277777761         0.315666676
     0.722222269         0.611111104         0.315666676
     0.722222209         0.944444418         0.315666676
     0.222222254         0.277777761         0.315666676
     0.222222224         0.611111104         0.315666676
     0.222222224         0.944444418         0.315666676
     0.555555582         0.277777761         0.315666676
     0.555555582         0.611111104         0.315666676
     0.555555582         0.944444418         0.315666676
     0.888888896         0.277777761         0.315666676
     0.888888896         0.611111104         0.315666676
     0.888888896         0.944444418         0.315666676
     0.111111119         0.055555578         0.982333302
     0.111111112         0.388888866         0.982333302
     0.111111112         0.722222149         0.982333302
     0.444444478         0.055555578         0.982333302
     0.444444448         0.388888866         0.982333302
     0.444444418         0.722222149         0.982333302
     0.777777791         0.055555578         0.982333302
     0.777777791         0.388888866         0.982333302
     0.777777791         0.722222149         0.982333302
     0.277777761         0.055555578         0.982333302
     0.277777761         0.388888866         0.982333302
     0.277777702         0.722222149         0.982333302
     0.611111104         0.055555578         0.982333302
     0.611111104         0.388888866         0.982333302
     0.611111045         0.722222149         0.982333302
     0.944444418         0.055555578         0.982333302
     0.944444478         0.388888866         0.982333302
     0.944444418         0.722222149         0.982333302
     0.111111127         0.222222254         0.982333302
     0.111111104         0.555555522         0.982333302
     0.111111149         0.888888896         0.982333302
     0.444444448         0.222222254         0.982333302
     0.444444418         0.555555522         0.982333302
     0.444444448         0.888888896         0.982333302
     0.777777791         0.222222254         0.982333302
     0.777777791         0.555555522         0.982333302
     0.777777791         0.888888896         0.982333302
     0.277777791         0.222222254         0.982333302
     0.277777761         0.555555522         0.982333302
     0.277777761         0.888888896         0.982333302
     0.611111104         0.222222254         0.982333302
     0.611111045         0.555555522         0.982333302
     0.611111104         0.888888896         0.982333302
     0.944444418         0.222222254         0.982333302
     0.944444418         0.555555522         0.982333302
     0.944444418         0.888888896         0.982333302
     0.000000000         0.000000000         0.172000006
     0.000000000         0.333333343         0.172000006
     0.000000000         0.666666627         0.172000006
     0.333333313         0.000000000         0.172000006
     0.333333343         0.333333343         0.172000006
     0.333333313         0.666666627         0.172000006
     0.666666687         0.000000000         0.172000006
     0.666666687         0.333333343         0.172000006
     0.666666627         0.666666627         0.172000006
     0.166666657         0.000000000         0.172000006
     0.166666672         0.333333343         0.172000006
     0.166666672         0.666666627         0.172000006
     0.500000000         0.000000000         0.172000006
     0.499999970         0.333333343         0.172000006
     0.499999970         0.666666627         0.172000006
     0.833333373         0.000000000         0.172000006
     0.833333313         0.333333343         0.172000006
     0.833333313         0.666666627         0.172000006
     0.000000000         0.166666672         0.172000006
     0.000000000         0.500000000         0.172000006
     0.000000000         0.833333313         0.172000006
     0.333333313         0.166666672         0.172000006
     0.333333313         0.500000000         0.172000006
     0.333333313         0.833333313         0.172000006
     0.666666627         0.166666672         0.172000006
     0.666666687         0.500000000         0.172000006
     0.666666627         0.833333313         0.172000006
     0.055555552         0.111111104         0.838666677
     0.055555575         0.444444448         0.838666677
     0.055555567         0.777777731         0.838666677
     0.388888866         0.111111104         0.838666677
     0.388888896         0.444444448         0.838666677
     0.388888866         0.777777731         0.838666677
     0.722222209         0.111111104         0.838666677
     0.722222209         0.444444448         0.838666677
     0.722222209         0.777777731         0.838666677
     0.222222209         0.111111104         0.838666677
     0.222222224         0.444444448         0.838666677
     0.222222224         0.777777731         0.838666677
     0.555555522         0.111111104         0.838666677
     0.555555522         0.444444448         0.838666677
     0.555555522         0.777777731         0.838666677
     0.888888955         0.111111104         0.838666677
     0.888888896         0.444444448         0.838666677
     0.888888896         0.777777731         0.838666677
     0.055555552         0.277777761         0.838666677
     0.055555578         0.611111104         0.838666677
     0.055555560         0.944444418         0.838666677
     0.388888866         0.277777761         0.838666677
     0.388888896         0.611111104         0.838666677
     0.388888866         0.944444418         0.838666677
     0.722222209         0.277777761         0.838666677
     0.722222269         0.611111104         0.838666677
     0.722222209         0.944444418         0.838666677
     0.222222254         0.277777761         0.838666677
     0.222222224         0.611111104         0.838666677
     0.222222224         0.944444418         0.838666677
     0.555555582         0.277777761         0.838666677
     0.555555582         0.611111104         0.838666677
     0.555555582         0.944444418         0.838666677
     0.888888896         0.277777761         0.838666677
     0.888888896         0.611111104         0.838666677
     0.888888896         0.944444418         0.838666677
     0.111111119         0.055555578         0.505333304
     0.111111112         0.388888866         0.505333304
     0.111111112         0.722222149         0.505333304
     0.444444478         0.055555578         0.505333304
     0.444444448         0.388888866         0.505333304
     0.444444418         0.722222149         0.505333304
     0.777777791         0.055555578         0.505333304
     0.777777791         0.388888866         0.505333304
     0.777777791         0.722222149         0.505333304
     0.277777761         0.055555578         0.505333304
     0.277777761         0.388888866         0.505333304
     0.277777702         0.722222149         0.505333304
     0.611111104         0.055555578         0.505333304
     0.611111104         0.388888866         0.505333304
     0.611111045         0.722222149         0.505333304
     0.944444418         0.055555578         0.505333304
     0.944444478         0.388888866         0.505333304
     0.944444418         0.722222149         0.505333304
     0.111111127         0.222222254         0.505333304
     0.111111104         0.555555522         0.505333304
     0.111111149         0.888888896         0.505333304
     0.444444448         0.222222254         0.505333304
     0.444444418         0.555555522         0.505333304
     0.444444448         0.888888896         0.505333304
     0.777777791         0.222222254         0.505333304
     0.777777791         0.555555522         0.505333304
     0.777777791         0.888888896         0.505333304